
  12   12
  10   10   10   10   10   10   10   10   10   10   10   10

   0   0   0   0   0   0   0   0   0   0   0   0   0   5 2 3 4 7 8 
   1   0   0   1   1   0   1   0   0   0   0   0   0   3 11 10 5 
   6   0   2   0   0   0   0   0   0   0   1   0   0   2 10 6 
   2   1   3   0   4   0   0   0   0   0   0   0   1   1 5 
   8   0   0   0   0   1   0   0   5   1   4   0   0   1 9 
   4   9   0   7   0   0  10   0   0   0   0   0   7   1 9 
   7   0   0   5   6   0   4   0   0   0   0   1   0   1 10 
   1   0   0   7   5   0   0   0   0   0   5   0   0   1 9 
   8   0  10   0   7   0   0   0   0   0   0   9   0   1 12
   9   0   0   0   7   0   5   0   0   0   6   0   0   1 12
   9   0   0   0   0   9   0   5   0   9   9   0   7   1 12
   0   0   0   0   0   0   0   0   0   0   0   0   0   0 
